p cnf 77 290
4 3 0
4 1 0
-3 -1 -4 0
-5 -2 0
-5 -4 0
2 4 5 0
6 -2 0
6 -2 0
2 -6 0
-7 -5 0
-7 -6 0
5 6 7 0
-8 1 0
-8 7 0
-1 -7 8 0
11 9 0
11 -10 0
-9 10 -11 0
12 4 0
12 11 0
-4 -11 -12 0
-12 -4 -13 0
12 4 -13 0
-12 4 13 0
12 -4 13 0
-13 -7 -14 0
13 7 -14 0
-13 7 14 0
13 -7 14 0
16 -15 0
16 1 0
15 -1 -16 0
-2 16 -17 0
2 -16 -17 0
-2 -16 17 0
2 16 17 0
19 -18 0
19 9 0
18 -9 -19 0
-20 5 0
-20 19 0
-5 -19 20 0
-21 -5 0
-21 -20 0
5 20 21 0
-22 -6 0
-22 21 0
6 -21 22 0
-23 22 0
-23 18 0
-22 -18 23 0
-24 17 0
-24 23 0
-17 -23 24 0
-14 -24 -25 0
14 24 -25 0
-14 24 25 0
14 -24 25 0
26 8 0
26 25 0
-8 -25 -26 0
6 1 -27 0
-6 -1 -27 0
6 -1 27 0
-6 1 27 0
27 11 -28 0
-27 -11 -28 0
27 -11 28 0
-27 11 28 0
20 28 -29 0
-20 -28 -29 0
20 -28 29 0
-20 28 29 0
-30 26 0
-30 -29 0
-26 29 30 0
1 3 -31 0
-1 -3 -31 0
1 -3 31 0
-1 3 31 0
32 31 0
32 -11 0
-31 11 -32 0
-33 15 0
-33 -32 0
-15 32 33 0
-35 31 0
-35 34 0
-31 -34 35 0
36 -35 0
36 -19 0
35 19 -36 0
-37 33 0
-37 -36 0
-33 36 37 0
38 3 0
38 -3 0
3 -5 -39 0
-3 5 -39 0
3 5 39 0
-3 -5 39 0
40 38 0
40 39 0
-38 -39 -40 0
-37 -40 -41 0
37 40 -41 0
-37 40 41 0
37 -40 41 0
42 30 0
42 -41 0
-30 41 -42 0
-43 -32 0
-43 9 0
32 -9 43 0
-31 -12 -44 0
31 12 -44 0
-31 12 44 0
31 -12 44 0
-5 -44 -45 0
5 44 -45 0
-5 44 45 0
5 -44 45 0
46 21 0
46 45 0
-21 -45 -46 0
-5 22 -47 0
5 -22 -47 0
-5 -22 47 0
5 22 47 0
48 10 0
48 -47 0
-10 47 -48 0
49 46 0
49 48 0
-46 -48 -49 0
-51 50 0
-51 -47 0
-50 47 51 0
-49 -51 -52 0
49 51 -52 0
-49 51 52 0
49 -51 52 0
53 43 0
53 52 0
-43 -52 -53 0
54 27 -55 0
-54 -27 -55 0
54 -27 55 0
-54 27 55 0
55 -20 -56 0
-55 20 -56 0
55 20 56 0
-55 -20 56 0
-56 -23 -57 0
56 23 -57 0
-56 23 57 0
56 -23 57 0
4 18 -58 0
-4 -18 -58 0
4 -18 58 0
-4 18 58 0
-59 -57 0
-59 58 0
57 -58 59 0
60 34 0
60 2 0
-34 -2 -60 0
61 -47 0
61 -16 0
47 16 -61 0
-62 16 0
-62 -18 0
-16 18 62 0
-63 -35 0
-63 62 0
35 -62 63 0
64 61 0
64 -63 0
-61 63 -64 0
-65 -31 0
-65 -28 0
31 28 65 0
66 -45 0
66 32 0
45 -32 -66 0
67 65 0
67 66 0
-65 -66 -67 0
68 64 0
68 67 0
-64 -67 -68 0
-60 -68 -69 0
60 68 -69 0
-60 68 69 0
60 -68 69 0
-70 59 0
-70 -69 0
-59 69 70 0
-11 34 -71 0
11 -34 -71 0
-11 -34 71 0
11 34 71 0
-72 -33 0
-72 45 0
33 -45 72 0
73 -17 0
73 -72 0
17 72 -73 0
74 -71 0
74 73 0
71 -73 -74 0
70 74 -75 0
-70 -74 -75 0
70 -74 75 0
-70 74 75 0
-76 -53 0
-76 -75 0
53 75 76 0
-42 -76 -77 0
42 76 -77 0
-42 76 77 0
42 -76 77 0
11 43 42 0
-10 57 -46 -18 19 22 0
11 -38 -36 -72 0
-27 -10 0
66 -4 -30 -3 -8 0
62 -72 -52 -10 0
-66 -75 -52 63 18 0
28 39 6 22 60 -67 0
23 -3 60 55 8 33 0
22 72 -19 36 0
-32 28 0
-56 -45 -43 -60 -76 -41 0
-20 28 9 59 -57 -29 0
22 12 0
33 41 0
-41 22 12 0
-50 -66 -43 -34 0
-2 49 43 30 50 46 0
-60 -61 66 37 -71 0
-10 -1 -51 0
61 -46 52 26 68 0
68 -27 -73 -29 31 -76 0
-8 73 76 -63 -31 0
63 -17 66 -45 0
76 25 -71 20 65 0
-42 -13 17 -31 57 0
-15 -8 56 0
-5 17 54 23 -11 0
-43 -12 8 -53 41 0
-35 33 -59 -68 -39 0
68 37 -61 18 67 0
-21 -4 0
51 75 11 -77 0
-24 -17 -66 0
-37 10 0
-56 8 -28 -49 -1 0
1 48 -47 -8 23 0
-74 8 66 50 -21 -59 0
37 23 15 32 0
-50 43 0
-52 -77 0
-47 69 -58 0
-47 -65 -2 1 0
-23 69 0
-53 63 -26 -3 0
61 -38 70 -75 58 0
6 -15 16 -18 14 0
-39 25 13 0
16 35 76 58 -20 0
41 -39 57 20 60 58 0
-59 43 0
53 41 -34 55 -13 0
-67 21 -48 -8 0
-45 73 70 27 5 0
-25 1 0
73 -27 70 -12 -2 0
-17 35 55 -38 -48 0
-23 -40 -76 0
9 27 12 73 47 0
-74 -58 67 -55 0
38 -21 -47 0
19 -22 0
-22 -16 11 -63 0
33 8 55 -60 0
-10 62 -48 -13 -61 0
56 -45 0
-62 52 33 48 30 -75 0
77 0
